peakDumbCharging = 11100; 
Machine = anon_enum(16); 
machineSpeed = [3700,3700,3700,3700,3700,3700,3700,3700,3700,3700,3700,3700,3700,3700,3700,3700]; 
machineLoad = [3700,3700,3700,3700,3700,3700,3700,3700,3700,3700,3700,3700,3700,3700,3700,3700]; 
Car = anon_enum(10); 
demandCar = [5920,13960,11280,6760,3360,9800,15240,7440,3960,4880]; 
arrivalCar = [80,67,60,60,60,48,45,45,43,38]; 
departureCar = [83,75,65,64,62,54,53,48,46,42]; 
